data/CVRPLIB/Vrp-Set-XML100/instances/XML100_3314_01.vrp
NAME : XML100_3314_01
COMMENT : Generated by Queiroga, Sadykov, Uchoa, and Vidal (2021)
TYPE : CVRP
DIMENSION : 101
EDGE_WEIGHT_TYPE : EUC_2D
CAPACITY : 14
NODE_COORD_SECTION
1    0    0   
2    700  796 
3    916  29  
4    753  118 
5    457  580 
6    619  632 
7    720  173 
8    516  870 
9    498  653 
10   645  714 
11   98   169 
12   387  466 
13   419  606 
14   926  882 
15   338  11  
16   2    295 
17   868  232 
18   506  866 
19   752  160 
20   546  591 
21   738  174 
22   677  191 
23   588  276 
24   688  445 
25   768  126 
26   445  817 
27   632  808 
28   727  218 
29   453  395 
30   420  461 
31   119  302 
32   258  662 
33   472  598 
34   564  399 
35   58   832 
36   813  92  
37   400  691 
38   872  183 
39   289  186 
40   692  9   
41   487  651 
42   933  168 
43   901  222 
44   413  956 
45   589  504 
46   618  187 
47   214  253 
48   470  650 
49   813  85  
50   818  138 
51   832  698 
52   415  715 
53   532  629 
54   744  181 
55   457  375 
56   363  653 
57   767  636 
58   722  281 
59   727  209 
60   735  73  
61   722  186 
62   563  569 
63   460  611 
64   467  535 
65   225  896 
66   966  591 
67   513  610 
68   115  559 
69   896  5   
70   824  924 
71   239  916 
72   946  324 
73   581  499 
74   748  100 
75   249  846 
76   170  118 
77   623  48  
78   387  854 
79   427  17  
80   233  558 
81   490  616 
82   942  229 
83   906  687 
84   800  319 
85   568  543 
86   773  73  
87   791  357 
88   581  746 
89   985  799 
90   508  637 
91   628  564 
92   454  862 
93   368  129 
94   641  40  
95   548  566 
96   682  93  
97   593  399 
98   654  272 
99   228  581 
100  740  210 
101  466  638 
DEMAND_SECTION
1    0   
2    1   
3    1   
4    1   
5    1   
6    1   
7    1   
8    1   
9    1   
10   1   
11   1   
12   1   
13   1   
14   1   
15   1   
16   1   
17   1   
18   1   
19   1   
20   1   
21   1   
22   1   
23   1   
24   1   
25   1   
26   1   
27   1   
28   1   
29   1   
30   1   
31   1   
32   1   
33   1   
34   1   
35   1   
36   1   
37   1   
38   1   
39   1   
40   1   
41   1   
42   1   
43   1   
44   1   
45   1   
46   1   
47   1   
48   1   
49   1   
50   1   
51   1   
52   1   
53   1   
54   1   
55   1   
56   1   
57   1   
58   1   
59   1   
60   1   
61   1   
62   1   
63   1   
64   1   
65   1   
66   1   
67   1   
68   1   
69   1   
70   1   
71   1   
72   1   
73   1   
74   1   
75   1   
76   1   
77   1   
78   1   
79   1   
80   1   
81   1   
82   1   
83   1   
84   1   
85   1   
86   1   
87   1   
88   1   
89   1   
90   1   
91   1   
92   1   
93   1   
94   1   
95   1   
96   1   
97   1   
98   1   
99   1   
100  1   
101  1   
DEPOT_SECTION
1
-1
EOF
