data/CVRPLIB/Vrp-Set-XML100/solutions/XML100_3314_01.sol
Route #1: 90 56 50 82 65 88 13 69 1 26 87 9 5 61
Route #2: 38 22 97 57 27 58 99 53 18 20 6 60 21 45
Route #3: 36 51 25 91 17 7 43 77 74 70 64 34 67 15
Route #4: 10 75
Route #5: 92 95 73 3 24 49 35 48 85 59 93 76 78 14
Route #6: 39 68 2 41 37 16 42 81 71 83 86 23 96 33
Route #7: 46 11 4 32 80 66 52 19 94 84 44 72 28 54
Route #8: 29 63 89 8 40 47 100 62 12 55 31 98 79 30
Cost 15679
